Instance: /home/alberto/work/doct-ufrgs-thesis/mankowska2014/instances-HHCRSP/InstanzCPLEX_HCSRP_10_1.txt
Time limit: 7200
Working directory: ./run.irE4y4lT


Generating model and initial solution...
#######################################
### Exact MIP solver for the HHCRSP ###
#######################################
-- Instance file: /home/alberto/work/doct-ufrgs-thesis/mankowska2014/instances-HHCRSP/InstanzCPLEX_HCSRP_10_1.txt
-- Max threads: 1
-- Time limit: 200 seconds
-- Use initial solution: No
Trivial flow violations prevented generating 133 variables.
Additional cuts are disabled.
Model exported.
SKIP_OPT flag set. Exiting.


Invoking CPLEX...

Welcome to IBM(R) ILOG(R) CPLEX(R) Interactive Optimizer 20.1.0.0
  with Simplex, Mixed Integer & Barrier Optimizers
5725-A06 5725-A29 5724-Y48 5724-Y49 5724-Y54 5724-Y55 5655-Y21
Copyright IBM Corp. 1988, 2020.  All Rights Reserved.

Type 'help' for a list of available commands.
Type 'help' followed by a command name for more
information on commands.

CPLEX> New value for seed to initialize the random number generator: 1
CPLEX> New value for time limit in seconds: 7200
CPLEX> Problem './run.irE4y4lT/model.lp' read.
Read time = 0.00 sec. (0.03 ticks)
CPLEX> Version identifier: 20.1.0.0 | 2020-11-10 | 9bedb6d68
CPXPARAM_RandomSeed                              1
CPXPARAM_TimeLimit                               7200
Tried aggregator 1 time.
MIP Presolve eliminated 108 rows and 51 columns.
MIP Presolve modified 46 coefficients.
Reduced MIP has 172 rows, 152 columns, and 815 nonzeros.
Reduced MIP has 120 binaries, 0 generals, 0 SOSs, and 0 indicators.
Presolve time = 0.00 sec. (0.60 ticks)
Probing time = 0.00 sec. (0.25 ticks)
Tried aggregator 1 time.
Detecting symmetries...
Reduced MIP has 172 rows, 152 columns, and 815 nonzeros.
Reduced MIP has 120 binaries, 0 generals, 0 SOSs, and 0 indicators.
Presolve time = 0.00 sec. (0.46 ticks)
Probing time = 0.00 sec. (0.29 ticks)
Clique table members: 376.
MIP emphasis: balance optimality and feasibility.
MIP search method: dynamic search.
Parallel mode: deterministic, using up to 8 threads.
Root relaxation solution time = 0.00 sec. (0.32 ticks)

        Nodes                                         Cuts/
   Node  Left     Objective  IInf  Best Integer    Best Bound    ItCnt     Gap

      0     0      149.0777    23                    149.0777       37         
      0     0      167.7054    36                    Cuts: 24       63         
      0     0      173.5828    24                    Cuts: 26       90         
      0     0      193.6440    22                    Cuts: 19      115         
      0     0      202.4209    36                    Cuts: 14      131         
      0     0      205.2415    40                     Cuts: 8      149         
      0     0      205.4110    40                    Cuts: 13      158         
      0     0      205.5638    40                     Cuts: 8      161         
      0     0      205.5638    43                 ZeroHalf: 4      166         
      0     0      205.7662    43                    Cuts: 10      174         
      0     0      205.9277    37                    Cuts: 17      183         
      0     0      205.9599    46                     Cuts: 3      185         
      0     0      205.9599    46                  MIRcuts: 1      186         
*     0+    0                         1074.8085      205.9599            80.84%
*     0+    0                          261.3630      205.9599            21.20%
      0     2      205.9599    43      261.3630      206.7813      186   20.88%
Elapsed time = 0.11 sec. (25.26 ticks, tree = 0.02 MB, solutions = 2)
*     9+    2                          239.1900      206.7813            13.55%
*   183+   33                          220.8475      208.5050             5.59%
*   266    20      integral     0      218.1986      208.5050     1707    4.44%

Clique cuts applied:  9
Cover cuts applied:  1
Implied bound cuts applied:  14
Flow cuts applied:  5
Mixed integer rounding cuts applied:  30
Zero-half cuts applied:  5
Gomory fractional cuts applied:  1

Root node processing (before b&c):
  Real time             =    0.09 sec. (25.15 ticks)
Parallel b&c, 8 threads:
  Real time             =    0.05 sec. (9.96 ticks)
  Sync time (average)   =    0.02 sec.
  Wait time (average)   =    0.00 sec.
                          ------------
Total (root+branch&cut) =    0.14 sec. (35.12 ticks)

Solution pool: 7 solutions saved.

MIP - Integer optimal solution:  Objective =  2.1819855033e+02
Solution time =    0.14 sec.  Iterations = 2618  Nodes = 331
Deterministic time = 35.12 ticks  (248.06 ticks/sec)

CPLEX> Incumbent solution written to file './run.irE4y4lT/final.sol'.
CPLEX> 